(set-logic QF_S)
(declare-fun var_0xINPUT_85216 () String)
(assert (and (not (= var_0xINPUT_85216 "AA1ND6MEXd")) (= (len var_0xINPUT_85216) 0) (not (= var_0xINPUT_85216 "Example:")) (= (len var_0xINPUT_85216) 0) (not (= var_0xINPUT_85216 "Example:")) (not (= var_0xINPUT_85216 "AA1ND6MEXd"))))
(check-sat var_0xINPUT_85216)